p ds 311 477
1 2
1 125
1 151
1 169
2 3
2 166
2 167
3 35
3 83
4 5
4 35
4 168
5 70
5 10
5 29
6 7
6 138
6 185
6 186
7 87
7 46
8 30
8 262
8 104
9 81
9 38
9 41
9 78
10 259
10 18
11 235
11 233
11 12
12 221
13 66
13 269
13 44
13 161
14 65
14 56
14 268
15 144
15 44
15 45
16 277
16 27
16 79
16 80
17 18
17 21
17 22
18 23
18 28
19 20
19 24
19 25
20 140
20 148
21 23
21 24
22 25
22 28
23 259
25 26
25 148
26 144
26 145
27 60
27 277
28 29
29 130
30 261
30 122
31 238
31 123
32 33
32 232
33 55
33 56
34 156
34 160
35 36
36 286
37 292
37 163
38 39
38 131
39 256
39 172
40 81
40 41
40 225
40 227
41 261
41 255
42 43
42 49
42 129
43 145
43 51
43 128
44 127
45 289
45 132
46 288
46 290
46 138
47 48
47 126
47 256
48 155
48 254
49 142
49 50
50 72
50 51
51 146
52 53
52 232
53 54
54 294
54 271
55 283
55 232
56 295
57 132
57 144
57 290
57 135
58 59
58 135
58 130
59 85
59 168
60 61
60 229
61 62
61 153
62 63
62 116
62 120
63 64
63 115
64 286
64 121
65 66
65 268
65 269
66 287
67 86
67 84
68 69
69 154
69 268
70 71
70 121
71 150
71 112
72 141
72 147
73 74
73 75
73 104
74 75
74 231
76 266
76 152
76 77
76 203
77 109
77 110
78 94
78 84
78 171
79 230
79 80
81 224
81 84
82 83
83 166
84 86
84 224
85 136
86 94
86 208
87 152
88 89
88 99
88 298
89 98
89 303
90 91
90 97
90 297
91 92
91 96
92 95
92 301
93 260
93 124
94 208
94 250
95 96
95 302
95 306
96 97
96 307
97 308
97 285
98 99
98 310
98 285
99 311
99 260
100 246
100 101
100 180
101 244
101 215
102 311
102 260
102 265
103 161
103 127
103 128
104 230
104 122
105 234
105 106
105 158
106 235
107 222
107 253
108 284
108 109
108 111
108 295
109 296
110 111
110 266
111 267
112 113
113 118
113 120
114 115
114 116
114 117
115 116
117 118
117 119
118 119
119 121
120 150
122 155
122 229
123 236
123 282
124 265
124 152
125 126
125 185
125 187
126 151
126 173
127 144
128 129
129 162
130 144
131 170
131 171
133 246
133 170
133 179
134 172
134 257
134 179
135 144
135 136
136 291
137 291
137 138
137 169
139 299
139 186
140 141
141 142
142 264
143 163
143 188
144 145
145 146
146 147
147 148
149 159
149 281
149 190
149 203
151 153
151 164
153 155
154 258
154 269
154 156
156 160
157 234
157 235
157 159
157 194
158 194
159 192
161 269
161 162
162 263
163 188
163 201
164 174
164 165
165 166
165 174
167 291
167 168
167 169
170 171
171 249
172 173
173 187
174 286
175 300
175 304
175 176
176 177
176 180
176 181
177 257
177 246
177 178
178 179
180 282
181 257
181 304
181 182
182 183
182 186
182 187
183 184
184 185
187 257
188 189
189 190
189 193
189 201
190 191
191 192
191 193
192 194
193 195
194 234
194 195
196 266
196 267
196 197
197 198
198 199
199 200
200 202
200 203
201 267
201 202
204 243
204 205
204 212
204 214
205 273
205 206
206 278
206 245
207 241
207 214
208 209
209 213
210 211
210 214
211 214
212 274
212 250
212 213
215 216
215 282
216 243
216 251
217 242
217 251
217 218
218 219
218 226
219 240
220 221
220 253
220 233
221 236
222 223
222 252
223 226
224 225
225 228
227 228
227 262
229 230
230 231
234 235
236 237
237 238
238 239
239 305
239 281
240 241
241 242
242 243
243 244
244 245
245 246
246 247
247 280
247 248
248 270
248 249
249 250
251 252
252 253
254 261
254 255
255 256
258 263
260 298
261 262
263 264
265 281
268 269
270 280
270 272
271 293
272 276
273 278
273 276
274 275
275 276
276 279
278 279
279 280
281 309
282 300
283 284
283 294
283 295
285 309
285 297
287 288
287 296
288 289
289 290
290 291
292 293
293 294
295 296
297 303
298 299
299 304
300 301
301 302
302 305
303 304
305 306
306 307
307 308
308 309
309 310
310 311
